Route #1: 1 16 26 40 39 44 45 61 60 76 91 84 85 77 71 72 86 92 95 96 87 88 78 89 97 98 99 100 93 90 83 94 75 70 59 53 38 31 25 7 15 14 6 13 24 18 30 37 29 28 43 36 35 34 23 22 21 27 41 42 55 48 49 56 57 65 50 51 52 58 66 69 74 82 81 73 80 79 68 64 63 67 62 54 47 46 32 33 20 19 8 2 3 9 10 4 11 17 12 5
Cost 45209
